GLPSOL: GLPK LP/MIP Solver, v4.65
Parameter(s) specified in the command line:
 -m gap.mod -d instances/gapd-6.dat --tmlim 10800
Reading model section from gap.mod...
34 lines were read
Reading data section from instances/gapd-6.dat...
8027 lines were read
Generating obj...
Generating exec...
Generating res...
Model has been successfully generated
GLPK Integer Optimizer, v4.65
221 rows, 4000 columns, 12000 non-zeros
4000 integer variables, all of which are binary
Preprocessing...
220 rows, 4000 columns, 8000 non-zeros
4000 integer variables, all of which are binary
Scaling...
 A: min|aij| =  1.000e+00  max|aij| =  1.000e+02  ratio =  1.000e+02
GM: min|aij| =  3.162e-01  max|aij| =  3.162e+00  ratio =  1.000e+01
EQ: min|aij| =  1.000e-01  max|aij| =  1.000e+00  ratio =  1.000e+01
2N: min|aij| =  6.250e-02  max|aij| =  1.719e+00  ratio =  2.750e+01
Constructing initial basis...
Size of triangular part is 220
Solving LP relaxation...
GLPK Simplex Optimizer, v4.65
220 rows, 4000 columns, 8000 non-zeros
      0: obj =   1.160700000e+04 inf =   3.212e+02 (1)
    359: obj =   1.928207174e+04 inf =   0.000e+00 (0)
*  1266: obj =   1.221769342e+04 inf =   2.840e-14 (0) 4
OPTIMAL LP SOLUTION FOUND
Integer optimization begins...
Long-step dual simplex will be used
+  1266: mip =     not found yet >=              -inf        (1; 0)
Solution found by heuristic: 12603
+  4624: mip =   1.260300000e+04 >=   1.221800000e+04   3.1% (850; 1)
Solution found by heuristic: 12495
+  8279: mip =   1.249500000e+04 >=   1.221900000e+04   2.2% (1792; 128)
+ 11446: mip =   1.249500000e+04 >=   1.221900000e+04   2.2% (2775; 130)
+ 14478: mip =   1.249500000e+04 >=   1.221900000e+04   2.2% (3633; 131)
+ 17490: mip =   1.249500000e+04 >=   1.221900000e+04   2.2% (4505; 133)
+ 20061: mip =   1.249500000e+04 >=   1.221900000e+04   2.2% (5441; 135)
+ 23110: mip =   1.249500000e+04 >=   1.221900000e+04   2.2% (6303; 136)
Solution found by heuristic: 12482
+ 26176: mip =   1.248200000e+04 >=   1.221900000e+04   2.1% (7099; 319)
+ 29032: mip =   1.248200000e+04 >=   1.221900000e+04   2.1% (8019; 321)
+ 31666: mip =   1.248200000e+04 >=   1.221900000e+04   2.1% (8833; 322)
+ 32278: mip =   1.248200000e+04 >=   1.221900000e+04   2.1% (9013; 323)
Time used: 3209.7 secs.  Memory used: 12.5 Mb.
+ 35586: mip =   1.248200000e+04 >=   1.221900000e+04   2.1% (9928; 325)
+ 38652: mip =   1.248200000e+04 >=   1.221900000e+04   2.1% (10790; 326)
+ 41767: mip =   1.248200000e+04 >=   1.221900000e+04   2.1% (11771; 328)
+ 44704: mip =   1.248200000e+04 >=   1.221900000e+04   2.1% (12695; 329)
+ 47877: mip =   1.248200000e+04 >=   1.221900000e+04   2.1% (13559; 331)
+ 50371: mip =   1.248200000e+04 >=   1.221900000e+04   2.1% (14462; 333)
+ 53379: mip =   1.248200000e+04 >=   1.221900000e+04   2.1% (15283; 334)
+ 56602: mip =   1.248200000e+04 >=   1.221900000e+04   2.1% (16199; 336)
+ 59424: mip =   1.248200000e+04 >=   1.221900000e+04   2.1% (17120; 338)
+ 62294: mip =   1.248200000e+04 >=   1.221900000e+04   2.1% (18024; 339)
+ 63055: mip =   1.248200000e+04 >=   1.221900000e+04   2.1% (18273; 340)
Time used: 3272.7 secs.  Memory used: 19.2 Mb.
+ 66425: mip =   1.248200000e+04 >=   1.221900000e+04   2.1% (19208; 342)
+ 69921: mip =   1.248200000e+04 >=   1.221900000e+04   2.1% (20158; 343)
+ 73545: mip =   1.248200000e+04 >=   1.221900000e+04   2.1% (21099; 345)
+ 76672: mip =   1.248200000e+04 >=   1.221900000e+04   2.1% (22076; 347)
+ 79617: mip =   1.248200000e+04 >=   1.221900000e+04   2.1% (22912; 348)
+ 82804: mip =   1.248200000e+04 >=   1.221900000e+04   2.1% (23785; 350)
+ 85949: mip =   1.248200000e+04 >=   1.221900000e+04   2.1% (24663; 352)
+ 89343: mip =   1.248200000e+04 >=   1.221900000e+04   2.1% (25538; 354)
+ 92288: mip =   1.248200000e+04 >=   1.221900000e+04   2.1% (26368; 355)
+ 95180: mip =   1.248200000e+04 >=   1.221900000e+04   2.1% (27350; 357)
+ 95802: mip =   1.248200000e+04 >=   1.221900000e+04   2.1% (27527; 357)
Time used: 3646.7 secs.  Memory used: 26.3 Mb.
+ 98986: mip =   1.248200000e+04 >=   1.221900000e+04   2.1% (28346; 359)
+101679: mip =   1.248200000e+04 >=   1.221900000e+04   2.1% (29219; 360)
+104823: mip =   1.248200000e+04 >=   1.221900000e+04   2.1% (30102; 362)
+108077: mip =   1.248200000e+04 >=   1.221900000e+04   2.1% (31048; 364)
+111368: mip =   1.248200000e+04 >=   1.221900000e+04   2.1% (31894; 366)
+114509: mip =   1.248200000e+04 >=   1.221900000e+04   2.1% (32842; 368)
+116504: mip =   1.248200000e+04 >=   1.221900000e+04   2.1% (33391; 369)
+119354: mip =   1.248200000e+04 >=   1.221900000e+04   2.1% (34260; 371)
+122161: mip =   1.248200000e+04 >=   1.221900000e+04   2.1% (35052; 372)
+125159: mip =   1.248200000e+04 >=   1.221900000e+04   2.1% (35914; 374)
+128067: mip =   1.248200000e+04 >=   1.221900000e+04   2.1% (36811; 376)
Time used: 3706.7 secs.  Memory used: 33.6 Mb.
+130679: mip =   1.248200000e+04 >=   1.221900000e+04   2.1% (37656; 377)
+134084: mip =   1.248200000e+04 >=   1.221900000e+04   2.1% (38564; 379)
+137445: mip =   1.248200000e+04 >=   1.221900000e+04   2.1% (39485; 381)
+140788: mip =   1.248200000e+04 >=   1.221900000e+04   2.1% (40464; 383)
+144109: mip =   1.248200000e+04 >=   1.221900000e+04   2.1% (41392; 385)
+147826: mip =   1.248200000e+04 >=   1.221900000e+04   2.1% (42295; 387)
+151219: mip =   1.248200000e+04 >=   1.221900000e+04   2.1% (43231; 389)
+154537: mip =   1.248200000e+04 >=   1.221900000e+04   2.1% (44216; 391)
+157647: mip =   1.248200000e+04 >=   1.221900000e+04   2.1% (45175; 393)
+160793: mip =   1.248200000e+04 >=   1.221900000e+04   2.1% (46113; 394)
+163791: mip =   1.248200000e+04 >=   1.221900000e+04   2.1% (47069; 396)
+166935: mip =   1.248200000e+04 >=   1.221900000e+04   2.1% (48027; 398)
Time used: 3766.7 secs.  Memory used: 42.8 Mb.
+170029: mip =   1.248200000e+04 >=   1.221900000e+04   2.1% (49025; 400)
+173487: mip =   1.248200000e+04 >=   1.221900000e+04   2.1% (49978; 402)
+176574: mip =   1.248200000e+04 >=   1.221900000e+04   2.1% (50854; 403)
+179680: mip =   1.248200000e+04 >=   1.221900000e+04   2.1% (51834; 405)
+183268: mip =   1.248200000e+04 >=   1.221900000e+04   2.1% (52832; 407)
+186614: mip =   1.248200000e+04 >=   1.221900000e+04   2.1% (53791; 409)
+189788: mip =   1.248200000e+04 >=   1.221900000e+04   2.1% (54757; 411)
+193195: mip =   1.248200000e+04 >=   1.221900000e+04   2.1% (55740; 414)
+196052: mip =   1.248200000e+04 >=   1.221900000e+04   2.1% (56683; 415)
+199452: mip =   1.248200000e+04 >=   1.221900000e+04   2.1% (57687; 417)
+203183: mip =   1.248200000e+04 >=   1.221900000e+04   2.1% (58660; 420)
+206862: mip =   1.248200000e+04 >=   1.221900000e+04   2.1% (59618; 422)
Time used: 3826.7 secs.  Memory used: 51.3 Mb.
+210491: mip =   1.248200000e+04 >=   1.221900000e+04   2.1% (60578; 424)
+213574: mip =   1.248200000e+04 >=   1.221900000e+04   2.1% (61585; 426)
+216838: mip =   1.248200000e+04 >=   1.221900000e+04   2.1% (62489; 427)
+220305: mip =   1.248200000e+04 >=   1.221900000e+04   2.1% (63369; 429)
+223285: mip =   1.248200000e+04 >=   1.221900000e+04   2.1% (64391; 431)
+226720: mip =   1.248200000e+04 >=   1.221900000e+04   2.1% (65376; 433)
+229699: mip =   1.248200000e+04 >=   1.221900000e+04   2.1% (66213; 434)
+232821: mip =   1.248200000e+04 >=   1.221900000e+04   2.1% (67194; 436)
+235780: mip =   1.248200000e+04 >=   1.221900000e+04   2.1% (68077; 437)
+238988: mip =   1.248200000e+04 >=   1.221900000e+04   2.1% (69062; 439)
+242242: mip =   1.248200000e+04 >=   1.221900000e+04   2.1% (70003; 441)
+245200: mip =   1.248200000e+04 >=   1.221900000e+04   2.1% (70935; 443)
Time used: 3886.7 secs.  Memory used: 59.0 Mb.
+248236: mip =   1.248200000e+04 >=   1.221900000e+04   2.1% (71904; 444)
+251384: mip =   1.248200000e+04 >=   1.221900000e+04   2.1% (72839; 446)
+254591: mip =   1.248200000e+04 >=   1.221900000e+04   2.1% (73797; 448)
+257769: mip =   1.248200000e+04 >=   1.221900000e+04   2.1% (74810; 450)
+260814: mip =   1.248200000e+04 >=   1.221900000e+04   2.1% (75742; 452)
+263607: mip =   1.248200000e+04 >=   1.221900000e+04   2.1% (76737; 453)
+266582: mip =   1.248200000e+04 >=   1.221900000e+04   2.1% (77637; 455)
+269531: mip =   1.248200000e+04 >=   1.221900000e+04   2.1% (78602; 457)
+272578: mip =   1.248200000e+04 >=   1.221900000e+04   2.1% (79518; 459)
+275790: mip =   1.248200000e+04 >=   1.221900000e+04   2.1% (80385; 460)
+278894: mip =   1.248200000e+04 >=   1.221900000e+04   2.1% (81381; 463)
+281999: mip =   1.248200000e+04 >=   1.221900000e+04   2.1% (82335; 464)
Time used: 3946.7 secs.  Memory used: 69.4 Mb.
+285062: mip =   1.248200000e+04 >=   1.221900000e+04   2.1% (83206; 466)
+288074: mip =   1.248200000e+04 >=   1.221900000e+04   2.1% (84130; 468)
+291444: mip =   1.248200000e+04 >=   1.221900000e+04   2.1% (85120; 470)
+295003: mip =   1.248200000e+04 >=   1.221900000e+04   2.1% (86013; 472)
+297789: mip =   1.248200000e+04 >=   1.221900000e+04   2.1% (86952; 473)
+300816: mip =   1.248200000e+04 >=   1.221900000e+04   2.1% (87869; 475)
+303974: mip =   1.248200000e+04 >=   1.221900000e+04   2.1% (88823; 477)
+307495: mip =   1.248200000e+04 >=   1.221900000e+04   2.1% (89831; 479)
+310488: mip =   1.248200000e+04 >=   1.221900000e+04   2.1% (90835; 480)
+313969: mip =   1.248200000e+04 >=   1.221900000e+04   2.1% (91796; 482)
+317268: mip =   1.248200000e+04 >=   1.221900000e+04   2.1% (92750; 484)
+320221: mip =   1.248200000e+04 >=   1.221900000e+04   2.1% (93738; 486)
Time used: 4006.8 secs.  Memory used: 77.4 Mb.
+323234: mip =   1.248200000e+04 >=   1.221900000e+04   2.1% (94605; 488)
+326200: mip =   1.248200000e+04 >=   1.221900000e+04   2.1% (95516; 490)
+329585: mip =   1.248200000e+04 >=   1.221900000e+04   2.1% (96472; 492)
+332654: mip =   1.248200000e+04 >=   1.221900000e+04   2.1% (97440; 493)
+335728: mip =   1.248200000e+04 >=   1.221900000e+04   2.1% (98373; 495)
+338777: mip =   1.248200000e+04 >=   1.221900000e+04   2.1% (99300; 497)
+341873: mip =   1.248200000e+04 >=   1.221900000e+04   2.1% (100250; 499)
+344919: mip =   1.248200000e+04 >=   1.221900000e+04   2.1% (101255; 501)
+348170: mip =   1.248200000e+04 >=   1.221900000e+04   2.1% (102236; 503)
+351322: mip =   1.248200000e+04 >=   1.221900000e+04   2.1% (103213; 504)
+354888: mip =   1.248200000e+04 >=   1.221900000e+04   2.1% (104167; 507)
+358188: mip =   1.248200000e+04 >=   1.221900000e+04   2.1% (105135; 509)
Time used: 4066.8 secs.  Memory used: 85.4 Mb.
+361368: mip =   1.248200000e+04 >=   1.221900000e+04   2.1% (106047; 510)
+364381: mip =   1.248200000e+04 >=   1.222000000e+04   2.1% (107015; 512)
+367139: mip =   1.248200000e+04 >=   1.222000000e+04   2.1% (107955; 513)
+370392: mip =   1.248200000e+04 >=   1.222000000e+04   2.1% (108915; 515)
+373629: mip =   1.248200000e+04 >=   1.222000000e+04   2.1% (109898; 517)
+377187: mip =   1.248200000e+04 >=   1.222000000e+04   2.1% (110746; 518)
+380101: mip =   1.248200000e+04 >=   1.222000000e+04   2.1% (111666; 520)
+383078: mip =   1.248200000e+04 >=   1.222000000e+04   2.1% (112697; 522)
+386319: mip =   1.248200000e+04 >=   1.222000000e+04   2.1% (113645; 523)
+389371: mip =   1.248200000e+04 >=   1.222000000e+04   2.1% (114618; 525)
+392536: mip =   1.248200000e+04 >=   1.222000000e+04   2.1% (115682; 527)
+395379: mip =   1.248200000e+04 >=   1.222000000e+04   2.1% (116630; 528)
Time used: 4126.8 secs.  Memory used: 92.9 Mb.
+398374: mip =   1.248200000e+04 >=   1.222000000e+04   2.1% (117509; 530)
+401728: mip =   1.248200000e+04 >=   1.222000000e+04   2.1% (118452; 532)
+404695: mip =   1.248200000e+04 >=   1.222000000e+04   2.1% (119504; 534)
+408016: mip =   1.248200000e+04 >=   1.222000000e+04   2.1% (120459; 536)
+411508: mip =   1.248200000e+04 >=   1.222000000e+04   2.1% (121442; 538)
+414712: mip =   1.248200000e+04 >=   1.222000000e+04   2.1% (122432; 540)
+418061: mip =   1.248200000e+04 >=   1.222000000e+04   2.1% (123335; 541)
+421457: mip =   1.248200000e+04 >=   1.222000000e+04   2.1% (124281; 543)
+425000: mip =   1.248200000e+04 >=   1.222000000e+04   2.1% (125197; 545)
+428355: mip =   1.248200000e+04 >=   1.222000000e+04   2.1% (126112; 547)
Solution found by heuristic: 12471
+431506: mip =   1.247100000e+04 >=   1.222000000e+04   2.0% (125076; 3938)
+434649: mip =   1.247100000e+04 >=   1.222000000e+04   2.0% (125972; 3939)
Time used: 4186.8 secs.  Memory used: 99.7 Mb.
+437861: mip =   1.247100000e+04 >=   1.222000000e+04   2.0% (126870; 3941)
+441181: mip =   1.247100000e+04 >=   1.222000000e+04   2.0% (127821; 3943)
+444485: mip =   1.247100000e+04 >=   1.222000000e+04   2.0% (128734; 3944)
+447783: mip =   1.247100000e+04 >=   1.222000000e+04   2.0% (129677; 3946)
+451125: mip =   1.247100000e+04 >=   1.222000000e+04   2.0% (130629; 3948)
+454013: mip =   1.247100000e+04 >=   1.222000000e+04   2.0% (131578; 3950)
+457076: mip =   1.247100000e+04 >=   1.222000000e+04   2.0% (132566; 3952)
+460357: mip =   1.247100000e+04 >=   1.222000000e+04   2.0% (133479; 3954)
+463083: mip =   1.247100000e+04 >=   1.222000000e+04   2.0% (134435; 3955)
+466222: mip =   1.247100000e+04 >=   1.222000000e+04   2.0% (135345; 3957)
+469276: mip =   1.247100000e+04 >=   1.222000000e+04   2.0% (136348; 3959)
+472419: mip =   1.247100000e+04 >=   1.222000000e+04   2.0% (137275; 3960)
Time used: 4246.8 secs.  Memory used: 106.7 Mb.
+475679: mip =   1.247100000e+04 >=   1.222000000e+04   2.0% (138244; 3962)
+478971: mip =   1.247100000e+04 >=   1.222000000e+04   2.0% (139264; 3964)
+481979: mip =   1.247100000e+04 >=   1.222000000e+04   2.0% (140204; 3966)
+484981: mip =   1.247100000e+04 >=   1.222000000e+04   2.0% (141155; 3968)
+485432: >>>>>   1.247000000e+04 >=   1.222000000e+04   2.0% (141310; 3968)
+488049: mip =   1.247000000e+04 >=   1.222000000e+04   2.0% (142029; 4305)
+490824: mip =   1.247000000e+04 >=   1.222000000e+04   2.0% (142951; 4307)
+493939: mip =   1.247000000e+04 >=   1.222000000e+04   2.0% (143868; 4308)
+497104: mip =   1.247000000e+04 >=   1.222000000e+04   2.0% (144746; 4310)
+500059: mip =   1.247000000e+04 >=   1.222000000e+04   2.0% (145694; 4312)
+503167: mip =   1.247000000e+04 >=   1.222000000e+04   2.0% (146680; 4314)
+506582: mip =   1.247000000e+04 >=   1.222000000e+04   2.0% (147614; 4316)
+509567: mip =   1.247000000e+04 >=   1.222000000e+04   2.0% (148615; 4318)
Time used: 4306.8 secs.  Memory used: 114.3 Mb.
+512560: mip =   1.247000000e+04 >=   1.222000000e+04   2.0% (149492; 4319)
+515674: mip =   1.247000000e+04 >=   1.222000000e+04   2.0% (150460; 4321)
+518728: mip =   1.247000000e+04 >=   1.222000000e+04   2.0% (151372; 4323)
+521863: mip =   1.247000000e+04 >=   1.222000000e+04   2.0% (152295; 4324)
+524963: mip =   1.247000000e+04 >=   1.222000000e+04   2.0% (153223; 4326)
+527695: mip =   1.247000000e+04 >=   1.222000000e+04   2.0% (154185; 4328)
+530653: mip =   1.247000000e+04 >=   1.222000000e+04   2.0% (155019; 4330)
Time used: 5538.7 secs.  Memory used: 118.4 Mb.
+533652: mip =   1.247000000e+04 >=   1.222000000e+04   2.0% (155821; 4331)
+536827: mip =   1.247000000e+04 >=   1.222000000e+04   2.0% (156757; 4333)
+537872: mip =   1.247000000e+04 >=   1.222000000e+04   2.0% (157098; 4334)
+541003: mip =   1.247000000e+04 >=   1.222000000e+04   2.0% (158014; 4336)
+544094: mip =   1.247000000e+04 >=   1.222000000e+04   2.0% (158983; 4338)
+547298: mip =   1.247000000e+04 >=   1.222000000e+04   2.0% (159933; 4340)
+550597: mip =   1.247000000e+04 >=   1.222000000e+04   2.0% (160851; 4342)
+553297: mip =   1.247000000e+04 >=   1.222000000e+04   2.0% (161707; 4343)
+556464: mip =   1.247000000e+04 >=   1.222000000e+04   2.0% (162573; 4345)
Time used: 5598.7 secs.  Memory used: 124.3 Mb.
+559622: mip =   1.247000000e+04 >=   1.222000000e+04   2.0% (163428; 4347)
+562870: mip =   1.247000000e+04 >=   1.222000000e+04   2.0% (164343; 4349)
+565586: mip =   1.247000000e+04 >=   1.222000000e+04   2.0% (165200; 4350)
+568647: mip =   1.247000000e+04 >=   1.222000000e+04   2.0% (166073; 4352)
+569018: mip =   1.247000000e+04 >=   1.222000000e+04   2.0% (166205; 4352)
Time used: 8483.7 secs.  Memory used: 131.3 Mb.
+571518: mip =   1.247000000e+04 >=   1.222000000e+04   2.0% (166980; 4353)
+574371: mip =   1.247000000e+04 >=   1.222000000e+04   2.0% (167847; 4355)
+577430: mip =   1.247000000e+04 >=   1.222000000e+04   2.0% (168767; 4357)
+580649: mip =   1.247000000e+04 >=   1.222000000e+04   2.0% (169671; 4359)
+583651: mip =   1.247000000e+04 >=   1.222000000e+04   2.0% (170558; 4361)
+586245: mip =   1.247000000e+04 >=   1.222000000e+04   2.0% (171375; 4362)
+588862: mip =   1.247000000e+04 >=   1.222000000e+04   2.0% (172252; 4364)
+590782: mip =   1.247000000e+04 >=   1.222000000e+04   2.0% (172781; 4365)
+593463: mip =   1.247000000e+04 >=   1.222000000e+04   2.0% (173655; 4366)
Time used: 8543.7 secs.  Memory used: 136.7 Mb.
+596730: mip =   1.247000000e+04 >=   1.222000000e+04   2.0% (174660; 4369)
+599632: mip =   1.247000000e+04 >=   1.222000000e+04   2.0% (175500; 4370)
+602842: mip =   1.247000000e+04 >=   1.222000000e+04   2.0% (176434; 4372)
+605791: mip =   1.247000000e+04 >=   1.222000000e+04   2.0% (177270; 4373)
+608400: mip =   1.247000000e+04 >=   1.222000000e+04   2.0% (178119; 4375)
+610235: mip =   1.247000000e+04 >=   1.222000000e+04   2.0% (178741; 4376)
+613059: mip =   1.247000000e+04 >=   1.222000000e+04   2.0% (179593; 4377)
+616095: mip =   1.247000000e+04 >=   1.222000000e+04   2.0% (180491; 4379)
+618853: mip =   1.247000000e+04 >=   1.222000000e+04   2.0% (181437; 4381)
Time used: 8603.7 secs.  Memory used: 142.3 Mb.
+621922: mip =   1.247000000e+04 >=   1.222000000e+04   2.0% (182380; 4383)
+624950: mip =   1.247000000e+04 >=   1.222000000e+04   2.0% (183269; 4385)
+628188: mip =   1.247000000e+04 >=   1.222000000e+04   2.0% (184174; 4387)
+630163: mip =   1.247000000e+04 >=   1.222000000e+04   2.0% (184647; 4388)
+632977: mip =   1.247000000e+04 >=   1.222000000e+04   2.0% (185597; 4390)
+636104: mip =   1.247000000e+04 >=   1.222000000e+04   2.0% (186495; 4392)
+639470: mip =   1.247000000e+04 >=   1.222000000e+04   2.0% (187394; 4393)
+642444: mip =   1.247000000e+04 >=   1.222000000e+04   2.0% (188281; 4395)
+645181: mip =   1.247000000e+04 >=   1.222000000e+04   2.0% (189205; 4396)
+648223: mip =   1.247000000e+04 >=   1.222000000e+04   2.0% (190054; 4398)
Time used: 8663.7 secs.  Memory used: 148.3 Mb.
+651174: mip =   1.247000000e+04 >=   1.222000000e+04   2.0% (190938; 4400)
+651799: mip =   1.247000000e+04 >=   1.222000000e+04   2.0% (191117; 4400)
Time used: 9718.7 secs.  Memory used: 148.7 Mb.
+654597: mip =   1.247000000e+04 >=   1.222000000e+04   2.0% (191965; 4402)
+657439: mip =   1.247000000e+04 >=   1.222000000e+04   2.0% (192921; 4404)
+657484: mip =   1.247000000e+04 >=   1.222000000e+04   2.0% (192937; 4404)
TIME LIMIT EXCEEDED; SEARCH TERMINATED
Time used:   11341.8 secs
Memory used: 150.4 Mb (157679476 bytes)
